WARNING: for repeatability, setting FPU to use double precision
============================[ Problem Statistics ]=============================
|                                                                             |
|  Number of variables:            50                                         |
|  Number of clauses:             218                                         |
|  Parse time:                   0.00 s                                       |
|                                                                             |
============================[ Search Statistics ]==============================
| Conflicts |          ORIGINAL         |          LEARNT          | Progress |
|           |    Vars  Clauses Literals |    Limit  Clauses Lit/Cl |          |
===============================================================================
===============================================================================
restarts              : 1
conflicts             : 77             (50859 /sec)
decisions             : 83             (0.00 % random) (54822 /sec)
propagations          : 1082           (714663 /sec)
conflict literals     : 300            (20.84 % deleted)
Memory used           : 20.00 MB
CPU time              : 0.001514 s

UNSATISFIABLE
